partE/conjure-output/model000001-data1.eprime-param
language ESSENCE' 1.0

letting numItems be 10
letting impacts_FunctionAsRelation_RelationAsSet_Explicit_1 be [1, 2, 3, 4, 5, 6, 7, 8, 9, 10; int(1..10)]
letting impacts_FunctionAsRelation_RelationAsSet_Explicit_2 be [8, 7, 8, 8, 8, 7, 9, 10, 7, 4; int(1..10)]
letting weights_FunctionAsRelation_RelationAsSet_Explicit_1 be [1, 2, 3, 4, 5, 6, 7, 8, 9, 10; int(1..10)]
letting weights_FunctionAsRelation_RelationAsSet_Explicit_2 be
        [500, 500, 600, 200, 1000, 700, 900, 1000, 500, 1000; int(1..10)]
letting weightLimit be 6000
letting volumes_FunctionAsRelation_RelationAsSet_Explicit_1 be [1, 2, 3, 4, 5, 6, 7, 8, 9, 10; int(1..10)]
letting volumes_FunctionAsRelation_RelationAsSet_Explicit_2 be
        [1000, 1000, 1500, 500, 1500, 1000, 1600, 1200, 700, 2000; int(1..10)]
letting volumeLimit be 6000
letting fin1 be 10
letting fin2 be 200
letting fin3 be 1000
letting fin4 be 10
letting fin5 be 500
letting fin6 be 2000
letting fin7 be 10
letting fin8 be 4
letting fin9 be 10
